40
2 0 6
2 1 8
3 0 1
4 3 8
5 0 8
5 1 3
5 4 2
6 1 5
6 4 3
6 5 1
7 5 7
7 6 7
8 0 3
8 2 10
8 5 1
8 7 3
9 1 5
9 4 7
9 6 7
9 7 10
9 8 2
10 1 10
10 4 6
10 6 4
10 8 4
11 1 3
11 3 7
11 6 6
11 7 8
11 9 2
12 2 7
12 5 4
12 6 7
12 8 9
12 9 7
12 11 9
13 0 6
13 3 7
13 5 2
13 9 5
13 11 3
13 12 9
14 0 8
14 1 8
14 3 7
14 5 6
14 7 7
14 10 8
14 11 10
14 12 6
14 13 1
15 1 2
15 6 5
15 8 9
15 9 2
15 11 10
15 12 1
15 13 5
15 14 5
16 1 4
16 3 6
16 4 3
16 5 2
16 6 7
16 10 4
16 11 3
16 14 1
16 15 1
17 1 2
17 3 3
17 4 6
17 5 2
17 8 5
17 9 1
17 10 9
17 11 5
17 12 8
18 0 4
18 2 5
18 5 7
18 6 10
18 9 3
18 13 7
18 17 10
19 2 1
19 3 4
19 4 9
19 6 1
19 7 6
19 15 10
19 16 10
19 18 8
20 2 3
20 3 10
20 7 6
20 8 10
20 12 7
20 13 3
20 15 3
20 18 6
20 19 8
21 0 3
21 3 2
21 4 2
21 5 8
21 6 6
21 8 4
21 10 6
21 11 2
21 12 5
21 15 10
21 17 3
21 18 9
21 20 6
22 0 8
22 2 8
22 3 1
22 4 6
22 5 2
22 7 9
22 9 4
22 10 8
22 12 10
22 14 4
22 15 1
22 17 5
22 19 2
23 0 3
23 1 4
23 2 9
23 3 2
23 4 3
23 6 1
23 7 3
23 10 4
23 11 1
23 13 6
23 16 4
23 17 8
23 20 6
24 1 7
24 3 5
24 5 7
24 6 1
24 7 2
24 8 9
24 9 7
24 11 1
24 12 2
24 15 8
24 17 5
24 19 4
24 20 4
24 21 7
24 22 10
24 23 3
25 0 4
25 2 10
25 6 5
25 8 7
25 9 5
25 15 8
25 18 2
25 20 10
25 21 5
25 22 10
25 23 5
26 6 10
26 7 3
26 8 7
26 9 5
26 10 7
26 14 1
26 15 8
26 16 10
26 17 2
26 19 3
26 20 3
26 21 9
26 23 2
26 24 9
26 25 10
27 0 5
27 6 5
27 9 5
27 13 7
27 14 5
27 15 7
27 19 5
27 20 5
27 22 3
27 24 8
27 26 6
28 1 8
28 3 2
28 4 7
28 6 10
28 7 8
28 8 9
28 10 7
28 12 8
28 14 9
28 15 8
28 17 1
28 18 7
28 21 3
28 22 2
28 23 7
28 24 7
28 26 9
28 27 8
29 0 1
29 2 9
29 5 1
29 8 7
29 9 7
29 12 1
29 13 8
29 15 2
29 18 5
29 21 7
29 22 4
29 25 9
29 27 10
30 0 4
30 1 2
30 2 8
30 3 9
30 5 2
30 6 8
30 7 8
30 9 2
30 10 7
30 11 3
30 12 3
30 15 9
30 16 2
30 17 4
30 21 2
30 22 7
30 24 5
31 0 2
31 2 1
31 5 6
31 6 8
31 7 5
31 8 3
31 10 5
31 14 4
31 16 8
31 23 10
31 24 7
31 28 8
31 30 9
32 0 5
32 5 8
32 6 10
32 7 8
32 8 7
32 9 8
32 12 6
32 13 1
32 14 9
32 17 4
32 19 2
32 20 9
32 22 3
32 26 5
32 28 3
32 29 4
32 30 2
33 1 8
33 3 10
33 4 4
33 7 1
33 8 3
33 9 2
33 10 10
33 11 4
33 12 4
33 15 1
33 16 7
33 17 4
33 19 8
33 20 4
33 21 2
33 25 3
33 26 8
33 27 10
33 28 7
33 29 7
33 30 6
33 31 2
33 32 2
34 2 6
34 8 7
34 10 3
34 11 1
34 13 8
34 14 10
34 15 7
34 17 8
34 18 8
34 20 4
34 23 8
34 25 8
34 26 2
34 29 4
34 33 2
35 0 8
35 1 1
35 3 9
35 7 6
35 11 1
35 14 5
35 15 6
35 16 5
35 19 3
35 20 8
35 21 4
35 25 9
35 27 4
35 29 1
35 30 7
35 34 3
36 5 8
36 9 5
36 11 6
36 13 6
36 14 9
36 15 7
36 18 10
36 19 5
36 22 6
36 23 2
36 24 7
36 26 6
36 27 1
36 28 8
36 30 6
36 34 8
36 35 2
37 0 6
37 2 3
37 4 3
37 5 9
37 7 2
37 8 9
37 9 6
37 10 3
37 11 8
37 19 4
37 20 9
37 24 3
37 27 9
37 30 7
37 32 6
37 33 7
37 36 8
38 2 8
38 4 1
38 7 8
38 9 8
38 12 2
38 13 7
38 14 1
38 20 3
38 21 3
38 23 5
38 24 2
38 26 4
38 27 8
38 30 6
38 31 6
38 32 1
38 34 10
38 36 6
39 3 5
39 6 7
39 7 1
39 8 5
39 11 8
39 14 8
39 16 3
39 17 5
39 19 1
39 20 7
39 21 1
39 23 6
39 24 1
39 25 6
39 28 5
39 29 8
39 32 7
39 34 4
39 35 3
39 36 7
39 38 10
